; Bottom-up merge sort
(declare-datatypes (a)
  ((list :source |Prelude.[]| (nil :source |Prelude.[]|)
     (cons :source |Prelude.:| (head a) (tail (list a))))))
(define-fun-rec
  (par (a b)
    (map :let :source Prelude.map
       ((f (=> a b)) (x (list a))) (list b)
       (match x
         (case nil (_ nil b))
         (case (cons y xs) (cons (@ f y) (map f xs)))))))
(define-fun-rec
  lmerge :source Sort.lmerge
    ((x (list Int)) (y (list Int))) (list Int)
    (match x
      (case nil y)
      (case (cons z x2)
        (match y
          (case nil x)
          (case (cons x3 x4)
            (ite (<= z x3) (cons z (lmerge x2 y)) (cons x3 (lmerge x x4))))))))
(define-fun-rec
  pairwise :source Sort.pairwise
    ((x (list (list Int)))) (list (list Int))
    (match x
      (case nil (_ nil (list Int)))
      (case (cons xs y)
        (match y
          (case nil (cons xs (_ nil (list Int))))
          (case (cons ys xss) (cons (lmerge xs ys) (pairwise xss)))))))
(define-fun-rec
  mergingbu :source Sort.mergingbu
    ((x (list (list Int)))) (list Int)
    (match x
      (case nil (_ nil Int))
      (case (cons xs y)
        (match y
          (case nil xs)
          (case (cons z x2) (mergingbu (pairwise x)))))))
(define-fun
  msortbu :source Sort.msortbu
    ((x (list Int))) (list Int)
    (mergingbu (map (lambda ((y Int)) (cons y (_ nil Int))) x)))
(define-fun-rec
  insert :source Sort.insert
    ((x Int) (y (list Int))) (list Int)
    (match y
      (case nil (cons x (_ nil Int)))
      (case (cons z xs)
        (ite (<= x z) (cons x y) (cons z (insert x xs))))))
(define-fun-rec
  isort :source Sort.sort
    ((x (list Int))) (list Int)
    (match x
      (case nil (_ nil Int))
      (case (cons y xs) (insert y (isort xs)))))
(prove
  :source Sort.prop_MSortBUIsSort
  (forall ((xs (list Int))) (= (msortbu xs) (isort xs))))
